10	5
0	2	1	2
1	2	6	8
2	1	7
3	1	10
4	1	9
5	1	6
6	1	3
7	2	8	4
8	2	3	9
9	1	11
10	1	11
11	0
0	0	0	0	0	0	0
1	8	0	3	4	0	1
2	4	5	5	5	3	4
3	10	2	1	4	3	2
4	5	1	0	0	4	0
5	1	3	2	0	5	1
6	10	5	5	2	2	1
7	7	0	0	3	2	0
8	1	5	3	2	3	5
9	2	4	3	0	0	1
10	1	3	5	0	3	4
11	0	0	0	0	0	0
9	10	10	9	6
